3 4 6 
3 2 1 4 1 17 2 16 5 18 6 18 2 1 3 26 2 4 6 1 41 2 42 3 39 4 38 5 36 6 43 2 5 1 33 2 27 3 28 4 27 5 28 2 4 5 2 144 3 160 4 135 5 161 6 145 3 6 1 159 2 173 3 158 4 173 5 175 6 153 
3 2 1 1 3 27 3 3 1 54 2 53 6 50 2 4 5 1 51 2 59 3 55 4 52 6 56 2 3 1 72 5 65 6 72 2 4 5 1 78 2 81 3 84 5 85 6 72 3 1 6 68 
3 2 1 5 1 53 2 58 4 59 5 60 6 61 2 5 1 64 2 65 3 61 4 59 5 58 2 2 6 1 71 2 73 3 68 4 69 5 72 6 65 3 5 1 79 2 72 4 87 5 85 6 82 2 4 3 1 92 2 92 5 93 3 6 1 103 2 92 3 93 4 104 5 109 6 108 
